Minimize
  0.1428571428571428 y_0 + 0.0769230769230769 y_1 + 0.1 y_2
   + 0.1111111111111111 y_3 + 0.1111111111111111 y_4 + 0.125 y_5
   + 0.1111111111111111 y_6 + 0.2 y_7 + 0.1428571428571428 y_8 + 0.1 y_9
   + 0.1 y_10 + 0.1111111111111111 y_11 + 0.0625 y_12 + 0.125 y_13
   + 0.125 y_14 + 0.1428571428571428 y_15 + 0.0909090909090909 y_16
   + 0.1 y_17 + 0.1 y_18 + 0.1 y_19 + 0.1 y_20 + 0.1666666666666667 y_21
   + 0.0833333333333333 y_22 + 0.1 y_23 + 0.0769230769230769 y_24
   + 0.1111111111111111 y_25 + 0.25 y_26 + 0.125 y_27 + 0.25 y_28
   + 0.0833333333333333 y_29 + 0.1111111111111111 y_30
   + 0.1111111111111111 y_31 + 0.1111111111111111 y_32
   + 0.1428571428571428 y_33 + 0.125 y_34 + 0.0833333333333333 y_35
   + 0.125 y_36 + 0.2 y_37 + 0.1 y_38 + 0.2 y_39 + 0.0714285714285714 y_40
   + 0.0714285714285714 y_41 + 0.1 y_42 + 0.2 y_43
   + 0.0769230769230769 y_44 + 0.1 y_45 + 0.1 y_46
   + 0.1111111111111111 y_47 + 0.5 y_48 + 0.1666666666666667 y_49
   + 0.1666666666666667 y_50 + 0.1111111111111111 y_51 + 0.125 y_52
   + 0.3333333333333333 y_53 + 0.1111111111111111 y_54
   + 0.0909090909090909 y_55 + 0.0833333333333333 y_56
   + 0.0909090909090909 y_57 + 0.1 y_58 + 0.0909090909090909 y_59
   + 0.2 y_60 + 0.1 y_61 + 0.0833333333333333 y_62 + 0.1 y_63 + 0.125 y_64
   + 0.1 y_65 + 0.1428571428571428 y_66 + 0.1111111111111111 y_67
   + 0.0909090909090909 y_68 + 0.1 y_69 + 0.0833333333333333 y_70
   + 0.1111111111111111 y_71 + 0.1111111111111111 y_72
   + 0.1666666666666667 y_73 + 0.1 y_74 + 0.0714285714285714 y_75
   + 0.0833333333333333 y_76 + 0.25 y_77 + 0.125 y_78
   + 0.0833333333333333 y_79 + 0.125 y_80 + 0.3333333333333333 y_81
   + 0.1 y_82 + 0.0909090909090909 y_83 + 0.0714285714285714 y_84
   + 0.2 y_85 + 0.0769230769230769 y_86 + 0.125 y_87 + 0.2 y_88
   + 0.0769230769230769 y_89 + 0.2 y_90 + 0.0769230769230769 y_91
   + 0.1428571428571428 y_92 + 0.1428571428571428 y_93
   + 0.1111111111111111 y_94 + 0.0909090909090909 y_95
   + 0.1111111111111111 y_96 + 0.1428571428571428 y_97
   + 0.1666666666666667 y_98 + 0.1111111111111111 y_99
   + 0.1111111111111111 y_100 + 0.125 y_101 + 0.125 y_102
   + 0.1428571428571428 y_103 + 0.0833333333333333 y_104
   + 0.1666666666666667 y_105 + 0.0909090909090909 y_106 + 0.0625 y_107
   + 0.125 y_108 + 0.1 y_109 + 0.0909090909090909 y_110
   + 0.0833333333333333 y_111 + 0.1666666666666667 y_112
   + 0.0769230769230769 y_113 + 0.0769230769230769 y_114 + 0.2 y_115
   + 0.0909090909090909 y_116 + 0.1 y_117 + 0.0909090909090909 y_118
   + 0.0909090909090909 y_119 + 0.0769230769230769 y_120
   + 0.1111111111111111 y_121 + 0.125 y_122 + 0.2 y_123 + 0.2 y_124
   + 0.0833333333333333 y_125 + 0.0833333333333333 y_126 + 0.1 y_127
   + 0.1428571428571428 y_128 + 0.0833333333333333 y_129
   + 0.1111111111111111 y_130 + 0.0909090909090909 y_131
   + 0.1111111111111111 y_132 + 0.1428571428571428 y_133
   + 0.1111111111111111 y_134 + 0.1 y_135 + 0.125 y_136
   + 0.0909090909090909 y_137 + 0.1666666666666667 y_138 + 0.125 y_139
   + 0.25 y_140 + 0.1428571428571428 y_141 + 0.25 y_142 + 0.25 y_143
   + 0.1 y_144 + 0.0909090909090909 y_145 + 0.1 y_146 + 0.1 y_147 + y_148
   + 0.1 y_149 + 0.1111111111111111 y_150 + 0.1111111111111111 y_151
   + 0.1428571428571428 y_152 + 0.1111111111111111 y_153
   + 0.1428571428571428 y_154 + 0.0909090909090909 y_155
   + 0.1428571428571428 y_156 + 0.0833333333333333 y_157
   + 0.1111111111111111 y_158 + 0.0909090909090909 y_159 + 0.5 y_160
   + 0.1111111111111111 y_161 + 0.1 y_162 + 0.1111111111111111 y_163
   + 0.2 y_164 + 0.1428571428571428 y_165 + 0.0833333333333333 y_166
   + 0.0833333333333333 y_167 + 0.0666666666666667 y_168 + 0.2 y_169
   + 0.1428571428571428 y_170 + 0.1666666666666667 y_171
   + 0.1111111111111111 y_172 + 0.2 y_173 + 0.0833333333333333 y_174
   + 0.1428571428571428 y_175 + 0.0833333333333333 y_176
   + 0.0833333333333333 y_177 + 0.0769230769230769 y_178
   + 0.0833333333333333 y_179 + 0.0833333333333333 y_180 + 0.1 y_181
   + 0.1111111111111111 y_182 + 0.2 y_183 + 0.0714285714285714 y_184
   + 0.0909090909090909 y_185 + 0.1 y_186 + 0.1111111111111111 y_187
   + 0.3333333333333333 y_188 + 0.25 y_189 + 0.0909090909090909 y_190
   + 0.0833333333333333 y_191 + 0.1111111111111111 y_192
   + 0.0909090909090909 y_193 + 0.0909090909090909 y_194 + 0.1 y_195
   + 0.0714285714285714 y_196 + 0.0769230769230769 y_197
   + 0.1666666666666667 y_198 + 0.1111111111111111 y_199
   - 26.08857808857806 Constant
Subject To
 c_0: y_64 = 1
 c_1_0: y_0 + y_52 + y_92 + y_103 + y_108 + y_152 + y_170 + y_173 + y_175
   + y_183 >= 1
 c_1_1: y_1 + y_29 + y_86 + y_114 + y_166 + y_177 + y_196 >= 1
 c_1_2: y_2 + y_4 + y_14 + y_19 + y_20 + y_42 + y_57 + y_82 + y_96 + y_144
   + y_158 + y_185 + y_187 + y_199 >= 1
 c_1_3: y_3 + y_101 + y_106 + y_130 >= 1
 c_1_4: y_2 + y_4 + y_9 + y_14 + y_20 + y_42 + y_45 + y_57 + y_68 + y_82
   + y_96 + y_144 + y_185 + y_187 + y_199 >= 1
 c_1_5: y_5 + y_8 + y_21 + y_66 + y_78 + y_121 + y_150 + y_153 + y_195
   >= 1
 c_1_6: y_6 + y_17 + y_31 + y_47 + y_94 + y_100 + y_172 + y_182 >= 1
 c_1_7: y_7 + y_53 + y_85 + y_105 + y_124 + y_138 + y_164 + y_169 >= 1
 c_1_8: y_5 + y_8 + y_15 + y_21 + y_60 + y_66 + y_78 >= 1
 c_1_9: y_4 + y_9 + y_14 + y_42 + y_45 + y_61 + y_68 + y_69 + y_110 + y_117
   + y_159 >= 1
 c_1_10: y_10 + y_30 + y_67 + y_99 + y_135 >= 1
 c_1_11: y_11 + y_18 + y_38 + y_65 + y_134 + y_181 >= 1
 c_1_12: y_12 + y_41 + y_107 >= 1
 c_1_13: y_13 + y_33 + y_54 + y_71 + y_97 + y_133 + y_171 >= 1
 c_1_14: y_2 + y_4 + y_9 + y_14 + y_20 + y_45 + y_82 + y_96 + y_187 + y_199
   >= 1
 c_1_15: y_8 + y_15 + y_21 + y_27 + y_66 + y_72 + y_150 + y_153 + y_165
   >= 1
 c_1_16: y_16 + y_55 + y_106 + y_111 + y_118 + y_147 >= 1
 c_1_17: y_6 + y_17 + y_47 + y_94 + y_161 + y_172 + y_182 + y_194 >= 1
 c_1_18: y_11 + y_18 + y_34 + y_38 + y_122 + y_181 >= 1
 c_1_19: y_2 + y_19 + y_52 + y_55 + y_82 + y_96 + y_108 + y_118 + y_144
   + y_147 + y_158 + y_187 + y_199 >= 1
 c_1_20: y_2 + y_4 + y_14 + y_20 + y_42 + y_45 + y_57 + y_68 + y_82 + y_96
   + y_144 + y_185 + y_187 + y_199 >= 1
 c_1_21: y_5 + y_8 + y_15 + y_21 + y_60 + y_66 + y_78 + y_165 >= 1
 c_1_22: y_22 + y_125 + y_166 + y_186 + y_190 >= 1
 c_1_23: y_23 + y_72 + y_83 + y_127 >= 1
 c_1_24: y_24 + y_44 + y_76 + y_113 + y_178 >= 1
 c_1_25: y_25 + y_30 + y_34 + y_67 + y_122 + y_135 >= 1
 c_1_26: y_26 + y_28 + y_60 + y_81 + y_140 + y_169 + y_188 >= 1
 c_1_27: y_15 + y_27 + y_49 + y_72 + y_102 + y_127 + y_165 >= 1
 c_1_28: y_26 + y_28 + y_60 + y_140 + y_169 + y_188 >= 1
 c_1_29: y_1 + y_29 + y_86 + y_91 + y_114 + y_166 + y_177 >= 1
 c_1_30: y_10 + y_25 + y_30 + y_67 + y_93 + y_99 + y_135 >= 1
 c_1_31: y_6 + y_31 + y_51 + y_100 + y_145 + y_151 + y_182 + y_193 >= 1
 c_1_32: y_32 + y_58 + y_64 + y_87 + y_134 + y_136 + y_146 >= 1
 c_1_33: y_13 + y_33 + y_133 + y_154 >= 1
 c_1_34: y_18 + y_25 + y_34 + y_122 >= 1
 c_1_35: y_35 + y_42 + y_57 + y_68 + y_79 + y_104 + y_110 + y_129 + y_159
   + y_176 + y_185 >= 1
 c_1_36: y_36 + y_80 + y_132 + y_139 >= 1
 c_1_37: y_37 + y_53 + y_90 >= 1
 c_1_38: y_11 + y_18 + y_38 + y_65 + y_181 >= 1
 c_1_39: y_39 + y_43 + y_77 + y_98 + y_112 + y_123 + y_171 >= 1
 c_1_40: y_40 + y_41 + y_111 + y_126 + y_180 >= 1
 c_1_41: y_12 + y_40 + y_41 + y_107 + y_126 + y_180 >= 1
 c_1_42: y_2 + y_4 + y_9 + y_20 + y_35 + y_42 + y_45 + y_57 + y_61 + y_68
   + y_82 + y_104 + y_110 + y_129 + y_159 + y_185 >= 1
 c_1_43: y_39 + y_43 + y_77 + y_98 + y_112 + y_115 + y_123 + y_141 + y_156
   >= 1
 c_1_44: y_24 + y_44 + y_76 + y_113 + y_155 + y_174 + y_178 + y_184 >= 1
 c_1_45: y_4 + y_9 + y_14 + y_20 + y_42 + y_45 + y_57 + y_61 + y_68 + y_69
   + y_110 + y_129 + y_159 + y_185 >= 1
 c_1_46: y_46 + y_72 + y_149 + y_150 + y_153 + y_186 + y_190 >= 1
 c_1_47: y_6 + y_17 + y_47 + y_94 + y_100 + y_161 + y_172 + y_182 >= 1
 c_1_48: y_48 + y_77 + y_148 + y_160 >= 1
 c_1_49: y_27 + y_49 + y_103 + y_142 + y_152 + y_165 >= 1
 c_1_50: y_50 + y_115 + y_128 >= 1
 c_1_51: y_31 + y_51 + y_54 + y_71 + y_151 >= 1
 c_1_52: y_0 + y_19 + y_52 + y_92 + y_96 + y_108 + y_130 + y_147 + y_158
   + y_170 + y_175 >= 1
 c_1_53: y_7 + y_37 + y_53 + y_90 + y_160 >= 1
 c_1_54: y_13 + y_51 + y_54 + y_59 + y_71 + y_117 + y_151 >= 1
 c_1_55: y_16 + y_19 + y_55 + y_118 + y_126 + y_147 + y_158 + y_180 >= 1
 c_1_56: y_56 + y_59 + y_61 + y_69 + y_116 + y_117 + y_167 >= 1
 c_1_57: y_2 + y_4 + y_20 + y_35 + y_42 + y_45 + y_57 + y_68 + y_79 + y_82
   + y_104 + y_110 + y_129 + y_159 + y_176 + y_185 >= 1
 c_1_58: y_32 + y_58 + y_63 + y_64 + y_74 + y_80 + y_87 + y_95 >= 1
 c_1_59: y_54 + y_56 + y_59 + y_69 + y_116 + y_117 + y_167 >= 1
 c_1_60: y_8 + y_21 + y_26 + y_28 + y_60 + y_140 + y_142 + y_188 >= 1
 c_1_61: y_9 + y_42 + y_45 + y_56 + y_61 + y_69 + y_110 + y_116 + y_117
   + y_159 >= 1
 c_1_62: y_62 + y_70 + y_89 + y_118 + y_180 + y_197 >= 1
 c_1_63: y_58 + y_63 + y_74 >= 1
 c_1_64: y_32 + y_58 + y_64 + y_80 + y_87 + y_136 >= 1
 c_1_65: y_11 + y_38 + y_65 + y_134 + y_146 + y_181 >= 1
 c_1_66: y_5 + y_8 + y_15 + y_21 + y_66 + y_78 + y_150 + y_153 + y_165
   >= 1
 c_1_67: y_10 + y_25 + y_30 + y_67 + y_93 + y_99 + y_135 >= 1
 c_1_68: y_4 + y_9 + y_20 + y_35 + y_42 + y_45 + y_57 + y_68 + y_79 + y_82
   + y_104 + y_110 + y_129 + y_159 + y_176 + y_185 >= 1
 c_1_69: y_9 + y_45 + y_56 + y_59 + y_61 + y_69 + y_116 + y_117 + y_167
   >= 1
 c_1_70: y_62 + y_70 + y_79 + y_89 + y_180 + y_197 >= 1
 c_1_71: y_13 + y_51 + y_54 + y_71 + y_97 + y_151 >= 1
 c_1_72: y_15 + y_23 + y_27 + y_46 + y_72 + y_83 + y_102 + y_127 + y_149
   >= 1
 c_1_73: y_73 + y_93 + y_105 + y_169 + y_198 >= 1
 c_1_74: y_58 + y_63 + y_74 + y_80 + y_132 >= 1
 c_1_75: y_75 >= 1
 c_1_76: y_24 + y_44 + y_76 + y_113 + y_178 >= 1
 c_1_77: y_39 + y_43 + y_48 + y_77 + y_115 + y_123 >= 1
 c_1_78: y_5 + y_8 + y_21 + y_66 + y_78 + y_93 + y_99 + y_121 >= 1
 c_1_79: y_35 + y_57 + y_68 + y_70 + y_79 + y_104 + y_159 + y_176 + y_185
   + y_197 >= 1
 c_1_80: y_36 + y_58 + y_64 + y_74 + y_80 + y_87 + y_139 >= 1
 c_1_81: y_26 + y_81 + y_140 + y_142 + y_148 + y_188 >= 1
 c_1_82: y_2 + y_4 + y_14 + y_19 + y_20 + y_42 + y_57 + y_68 + y_82 + y_96
   + y_144 + y_185 + y_187 + y_199 >= 1
 c_1_83: y_23 + y_72 + y_83 + y_127 + y_149 + y_190 >= 1
 c_1_84: y_84 + y_114 + y_196 >= 1
 c_1_85: y_7 + y_85 + y_105 + y_124 + y_138 + y_164 + y_169 + y_198 >= 1
 c_1_86: y_1 + y_29 + y_86 + y_91 + y_114 + y_177 >= 1
 c_1_87: y_32 + y_58 + y_64 + y_80 + y_87 + y_136 >= 1
 c_1_88: y_88 + y_154 + y_173 + y_183 + y_189 >= 1
 c_1_89: y_62 + y_70 + y_89 + y_118 + y_126 + y_168 + y_180 + y_197 >= 1
 c_1_90: y_37 + y_53 + y_90 >= 1
 c_1_91: y_29 + y_86 + y_91 + y_114 + y_177 >= 1
 c_1_92: y_0 + y_52 + y_92 + y_101 + y_103 + y_108 + y_130 + y_152 + y_170
   + y_175 >= 1
 c_1_93: y_30 + y_67 + y_73 + y_78 + y_93 + y_99 + y_198 >= 1
 c_1_94: y_6 + y_17 + y_47 + y_94 + y_100 + y_141 + y_156 + y_161 + y_172
   + y_182 >= 1
 c_1_95: y_58 + y_95 + y_119 + y_137 + y_146 >= 1
 c_1_96: y_2 + y_4 + y_14 + y_19 + y_20 + y_52 + y_82 + y_96 + y_108
   + y_144 + y_147 + y_158 + y_187 + y_199 >= 1
 c_1_97: y_13 + y_71 + y_97 + y_98 + y_112 + y_133 + y_171 >= 1
 c_1_98: y_39 + y_43 + y_97 + y_98 + y_112 + y_123 + y_171 >= 1
 c_1_99: y_10 + y_30 + y_67 + y_78 + y_93 + y_99 + y_121 >= 1
 c_1_100: y_6 + y_31 + y_47 + y_94 + y_100 + y_172 + y_182 >= 1
 c_1_101: y_3 + y_92 + y_101 + y_103 + y_130 + y_152 + y_170 + y_175 >= 1
 c_1_102: y_27 + y_72 + y_102 + y_127 >= 1
 c_1_103: y_0 + y_49 + y_92 + y_101 + y_103 + y_130 + y_152 + y_170 + y_175
   >= 1
 c_1_104: y_35 + y_42 + y_57 + y_68 + y_79 + y_104 + y_110 + y_129 + y_159
   + y_176 + y_185 + y_197 >= 1
 c_1_105: y_7 + y_73 + y_85 + y_105 + y_124 + y_138 + y_164 + y_169 + y_198
   >= 1
 c_1_106: y_3 + y_16 + y_106 + y_130 + y_179 >= 1
 c_1_107: y_12 + y_41 + y_107 >= 1
 c_1_108: y_0 + y_19 + y_52 + y_92 + y_96 + y_108 + y_147 + y_158 + y_170
   + y_175 + y_199 >= 1
 c_1_109: y_109 + y_132 + y_192 >= 1
 c_1_110: y_9 + y_35 + y_42 + y_45 + y_57 + y_61 + y_68 + y_104 + y_110
   + y_129 + y_159 + y_185 >= 1
 c_1_111: y_16 + y_40 + y_111 >= 1
 c_1_112: y_39 + y_43 + y_97 + y_98 + y_112 + y_123 + y_171 >= 1
 c_1_113: y_24 + y_44 + y_76 + y_113 + y_145 + y_155 + y_174 + y_178
   + y_184 >= 1
 c_1_114: y_1 + y_29 + y_84 + y_86 + y_91 + y_114 + y_166 + y_177 + y_196
   >= 1
 c_1_115: y_43 + y_50 + y_77 + y_115 + y_128 + y_141 + y_156 >= 1
 c_1_116: y_56 + y_59 + y_61 + y_69 + y_116 + y_117 + y_167 >= 1
 c_1_117: y_9 + y_54 + y_56 + y_59 + y_61 + y_69 + y_116 + y_117 + y_167
   >= 1
 c_1_118: y_16 + y_19 + y_55 + y_62 + y_89 + y_118 + y_126 + y_144 + y_147
   + y_158 + y_180 >= 1
 c_1_119: y_95 + y_119 + y_137 + y_146 >= 1
 c_1_120: y_120 + y_157 + y_174 + y_191 >= 1
 c_1_121: y_5 + y_78 + y_99 + y_121 + y_195 >= 1
 c_1_122: y_18 + y_25 + y_34 + y_122 >= 1
 c_1_123: y_39 + y_43 + y_77 + y_98 + y_112 + y_123 + y_156 + y_171 >= 1
 c_1_124: y_7 + y_85 + y_105 + y_124 + y_138 + y_164 + y_169 >= 1
 c_1_125: y_22 + y_125 + y_186 + y_190 >= 1
 c_1_126: y_40 + y_41 + y_55 + y_89 + y_118 + y_126 + y_180 >= 1
 c_1_127: y_23 + y_27 + y_72 + y_83 + y_102 + y_127 + y_149 >= 1
 c_1_128: y_50 + y_115 + y_128 + y_141 >= 1
 c_1_129: y_35 + y_42 + y_45 + y_57 + y_68 + y_104 + y_110 + y_129 + y_159
   + y_176 + y_185 >= 1
 c_1_130: y_3 + y_52 + y_92 + y_101 + y_103 + y_106 + y_130 + y_170 + y_175
   >= 1
 c_1_131: y_131 >= 1
 c_1_132: y_36 + y_74 + y_109 + y_132 + y_139 >= 1
 c_1_133: y_13 + y_33 + y_97 + y_133 + y_154 + y_171 >= 1
 c_1_134: y_11 + y_32 + y_65 + y_134 + y_136 + y_146 + y_181 >= 1
 c_1_135: y_10 + y_25 + y_30 + y_67 + y_135 >= 1
 c_1_136: y_32 + y_64 + y_87 + y_134 + y_136 >= 1
 c_1_137: y_95 + y_119 + y_137 + y_146 >= 1
 c_1_138: y_7 + y_85 + y_105 + y_124 + y_138 + y_164 + y_169 >= 1
 c_1_139: y_36 + y_80 + y_132 + y_139 >= 1
 c_1_140: y_26 + y_28 + y_60 + y_81 + y_140 + y_142 + y_188 >= 1
 c_1_141: y_43 + y_94 + y_115 + y_128 + y_141 + y_156 >= 1
 c_1_142: y_49 + y_60 + y_81 + y_140 + y_142 + y_165 + y_188 >= 1
 c_1_143: y_143 + y_173 + y_183 + y_189 >= 1
 c_1_144: y_2 + y_4 + y_19 + y_20 + y_82 + y_96 + y_118 + y_144 + y_147
   + y_158 + y_185 + y_187 + y_199 >= 1
 c_1_145: y_31 + y_113 + y_145 + y_151 + y_155 + y_174 + y_193 + y_194
   >= 1
 c_1_146: y_32 + y_65 + y_95 + y_119 + y_134 + y_137 + y_146 >= 1
 c_1_147: y_16 + y_19 + y_52 + y_55 + y_96 + y_108 + y_118 + y_144 + y_147
   + y_158 >= 1
 c_1_148: y_48 + y_81 + y_148 + y_160 >= 1
 c_1_149: y_46 + y_72 + y_83 + y_127 + y_149 + y_150 + y_153 + y_186
   + y_190 >= 1
 c_1_150: y_5 + y_15 + y_46 + y_66 + y_149 + y_150 + y_153 + y_186 + y_195
   >= 1
 c_1_151: y_31 + y_51 + y_54 + y_71 + y_145 + y_151 >= 1
 c_1_152: y_0 + y_49 + y_92 + y_101 + y_103 + y_152 + y_170 + y_175 >= 1
 c_1_153: y_5 + y_15 + y_46 + y_66 + y_149 + y_150 + y_153 + y_186 + y_195
   >= 1
 c_1_154: y_33 + y_88 + y_133 + y_154 >= 1
 c_1_155: y_44 + y_113 + y_145 + y_155 + y_174 + y_178 + y_191 + y_193
   >= 1
 c_1_156: y_43 + y_94 + y_115 + y_123 + y_141 + y_156 >= 1
 c_1_157: y_120 + y_157 + y_174 + y_191 + y_193 + y_194 >= 1
 c_1_158: y_2 + y_19 + y_52 + y_55 + y_96 + y_108 + y_118 + y_144 + y_147
   + y_158 + y_187 + y_199 >= 1
 c_1_159: y_9 + y_35 + y_42 + y_45 + y_57 + y_61 + y_68 + y_79 + y_104
   + y_110 + y_129 + y_159 + y_176 + y_185 >= 1
 c_1_160: y_48 + y_53 + y_148 + y_160 >= 1
 c_1_161: y_17 + y_47 + y_94 + y_161 + y_162 + y_172 + y_182 >= 1
 c_1_162: y_161 + y_162 + y_163 >= 1
 c_1_163: y_162 + y_163 + y_192 >= 1
 c_1_164: y_7 + y_85 + y_105 + y_124 + y_138 + y_164 + y_169 >= 1
 c_1_165: y_15 + y_21 + y_27 + y_49 + y_66 + y_142 + y_165 >= 1
 c_1_166: y_1 + y_22 + y_29 + y_114 + y_166 + y_177 + y_196 >= 1
 c_1_167: y_56 + y_59 + y_69 + y_116 + y_117 + y_167 >= 1
 c_1_168: y_89 + y_168 + y_197 >= 1
 c_1_169: y_7 + y_26 + y_28 + y_73 + y_85 + y_105 + y_124 + y_138 + y_164
   + y_169 + y_198 >= 1
 c_1_170: y_0 + y_52 + y_92 + y_101 + y_103 + y_108 + y_130 + y_152 + y_170
   + y_175 >= 1
 c_1_171: y_13 + y_39 + y_97 + y_98 + y_112 + y_123 + y_133 + y_171 >= 1
 c_1_172: y_6 + y_17 + y_47 + y_94 + y_100 + y_161 + y_172 + y_182 >= 1
 c_1_173: y_0 + y_88 + y_143 + y_173 + y_183 + y_189 >= 1
 c_1_174: y_44 + y_113 + y_120 + y_145 + y_155 + y_157 + y_174 + y_178
   + y_184 + y_191 + y_193 >= 1
 c_1_175: y_0 + y_52 + y_92 + y_101 + y_103 + y_108 + y_130 + y_152 + y_170
   + y_175 >= 1
 c_1_176: y_35 + y_57 + y_68 + y_79 + y_104 + y_129 + y_159 + y_176 + y_185
   + y_197 >= 1
 c_1_177: y_1 + y_29 + y_86 + y_91 + y_114 + y_166 + y_177 >= 1
 c_1_178: y_24 + y_44 + y_76 + y_113 + y_155 + y_174 + y_178 + y_184 >= 1
 c_1_179: y_106 + y_179 >= 1
 c_1_180: y_40 + y_41 + y_55 + y_62 + y_70 + y_89 + y_118 + y_126 + y_180
   >= 1
 c_1_181: y_11 + y_18 + y_38 + y_65 + y_134 + y_181 >= 1
 c_1_182: y_6 + y_17 + y_31 + y_47 + y_94 + y_100 + y_161 + y_172 + y_182
   + y_194 >= 1
 c_1_183: y_0 + y_88 + y_143 + y_173 + y_183 + y_189 >= 1
 c_1_184: y_44 + y_113 + y_174 + y_178 + y_184 >= 1
 c_1_185: y_2 + y_4 + y_20 + y_35 + y_42 + y_45 + y_57 + y_68 + y_79 + y_82
   + y_104 + y_110 + y_129 + y_144 + y_159 + y_176 + y_185 + y_187 >= 1
 c_1_186: y_22 + y_46 + y_125 + y_149 + y_150 + y_153 + y_186 + y_190 >= 1
 c_1_187: y_2 + y_4 + y_14 + y_19 + y_20 + y_82 + y_96 + y_144 + y_158
   + y_185 + y_187 + y_199 >= 1
 c_1_188: y_26 + y_28 + y_60 + y_81 + y_140 + y_142 + y_188 >= 1
 c_1_189: y_88 + y_143 + y_173 + y_183 + y_189 >= 1
 c_1_190: y_22 + y_46 + y_83 + y_125 + y_149 + y_186 + y_190 >= 1
 c_1_191: y_120 + y_155 + y_157 + y_174 + y_191 + y_193 + y_194 >= 1
 c_1_192: y_109 + y_163 + y_192 >= 1
 c_1_193: y_31 + y_145 + y_155 + y_157 + y_174 + y_191 + y_193 + y_194
   >= 1
 c_1_194: y_17 + y_145 + y_157 + y_182 + y_191 + y_193 + y_194 >= 1
 c_1_195: y_5 + y_121 + y_150 + y_153 + y_195 >= 1
 c_1_196: y_1 + y_84 + y_114 + y_166 + y_196 >= 1
 c_1_197: y_62 + y_70 + y_79 + y_89 + y_104 + y_168 + y_176 + y_197 >= 1
 c_1_198: y_73 + y_85 + y_93 + y_105 + y_169 + y_198 >= 1
 c_1_199: y_2 + y_4 + y_14 + y_19 + y_20 + y_82 + y_96 + y_108 + y_144
   + y_158 + y_187 + y_199 >= 1
Bounds
 Constant = 1
Binaries
 y_0 y_1 y_2 y_3 y_4 y_5 y_6 y_7 y_8 y_9 y_10 y_11 y_12 y_13 y_14 y_15 y_16
 y_17 y_18 y_19 y_20 y_21 y_22 y_23 y_24 y_25 y_26 y_27 y_28 y_29 y_30 y_31
 y_32 y_33 y_34 y_35 y_36 y_37 y_38 y_39 y_40 y_41 y_42 y_43 y_44 y_45 y_46
 y_47 y_48 y_49 y_50 y_51 y_52 y_53 y_54 y_55 y_56 y_57 y_58 y_59 y_60 y_61
 y_62 y_63 y_64 y_65 y_66 y_67 y_68 y_69 y_70 y_71 y_72 y_73 y_74 y_75 y_76
 y_77 y_78 y_79 y_80 y_81 y_82 y_83 y_84 y_85 y_86 y_87 y_88 y_89 y_90 y_91
 y_92 y_93 y_94 y_95 y_96 y_97 y_98 y_99 y_100 y_101 y_102 y_103 y_104
 y_105 y_106 y_107 y_108 y_109 y_110 y_111 y_112 y_113 y_114 y_115 y_116
 y_117 y_118 y_119 y_120 y_121 y_122 y_123 y_124 y_125 y_126 y_127 y_128
 y_129 y_130 y_131 y_132 y_133 y_134 y_135 y_136 y_137 y_138 y_139 y_140
 y_141 y_142 y_143 y_144 y_145 y_146 y_147 y_148 y_149 y_150 y_151 y_152
 y_153 y_154 y_155 y_156 y_157 y_158 y_159 y_160 y_161 y_162 y_163 y_164
 y_165 y_166 y_167 y_168 y_169 y_170 y_171 y_172 y_173 y_174 y_175 y_176
 y_177 y_178 y_179 y_180 y_181 y_182 y_183 y_184 y_185 y_186 y_187 y_188
 y_189 y_190 y_191 y_192 y_193 y_194 y_195 y_196 y_197 y_198 y_199
End
